(set-logic QF_SLIA)
(set-option :produce-models true)
(declare-const X String)
; ^\w*[-]*\w*\\\w*$
(assert (not (str.in_re X (re.++ (re.* (re.union (re.range "0" "9") (re.range "A" "Z") (re.range "a" "z") (str.to_re "_"))) (re.* (str.to_re "-")) (re.* (re.union (re.range "0" "9") (re.range "A" "Z") (re.range "a" "z") (str.to_re "_"))) (str.to_re "\u{5c}") (re.* (re.union (re.range "0" "9") (re.range "A" "Z") (re.range "a" "z") (str.to_re "_"))) (str.to_re "\u{0a}")))))
; (\[a url=\"[^\[\]\"]*\"\])([^\[\]]+)(\[/a\])
(assert (not (str.in_re X (re.++ (re.+ (re.union (str.to_re "[") (str.to_re "]"))) (str.to_re "[/a]\u{0a}[a url=\u{22}") (re.* (re.union (str.to_re "[") (str.to_re "]") (str.to_re "\u{22}"))) (str.to_re "\u{22}]")))))
; ((\d|([a-f]|[A-F])){2}:){5}(\d|([a-f]|[A-F])){2}
(assert (not (str.in_re X (re.++ ((_ re.loop 5 5) (re.++ ((_ re.loop 2 2) (re.union (re.range "0" "9") (re.range "a" "f") (re.range "A" "F"))) (str.to_re ":"))) ((_ re.loop 2 2) (re.union (re.range "0" "9") (re.range "a" "f") (re.range "A" "F"))) (str.to_re "\u{0a}")))))
; [^A-Za-z0-9_@\.]|@{2,}|\.{5,}
(assert (not (str.in_re X (re.union (re.++ ((_ re.loop 2 2) (str.to_re "@")) (re.* (str.to_re "@"))) (re.++ (str.to_re "\u{0a}") ((_ re.loop 5 5) (str.to_re ".")) (re.* (str.to_re "."))) (re.range "A" "Z") (re.range "a" "z") (re.range "0" "9") (str.to_re "_") (str.to_re "@") (str.to_re ".")))))
; User-Agent\u{3a}\w+Owner\x3A
(assert (str.in_re X (re.++ (str.to_re "User-Agent:") (re.+ (re.union (re.range "0" "9") (re.range "A" "Z") (re.range "a" "z") (str.to_re "_"))) (str.to_re "Owner:\u{0a}"))))
(check-sat)
